sat
(=
 s0
 #b0000000000000000000000000000000000000000000000000000000000000000000000000000000000000000000000000000000000000000000000000000000000000000000000000000000000000000000000000000000000000000000000000000000000000000000000000000000000000000000000000000000000000000000000000000000000000000000000000000000000000000000000000000000000000000000000000000000000000000000000000000000000000000000000000000000000000000000000000000000000000000000000000000000000000000000000000000000000000000000000000000000000000000000000000000000000000000000000000000000000000000000000000000000000000000000000000000000000000000000000000000000000000000000000000000000000000000000000001)
(error "can't build a model. Call (check-sat) first")
(error "can't build a model. Call (check-sat) first")
(error "can't build a model. Call (check-sat) first")
(error "can't build a model. Call (check-sat) first")
(error "can't build a model. Call (check-sat) first")
(error "can't build a model. Call (check-sat) first")
(error "can't build a model. Call (check-sat) first")
(error "can't build a model. Call (check-sat) first")
(error "can't build a model. Call (check-sat) first")
(error "can't build a model. Call (check-sat) first")
(error "can't build a model. Call (check-sat) first")
(error "can't build a model. Call (check-sat) first")
(error "can't build a model. Call (check-sat) first")
(error "can't build a model. Call (check-sat) first")
(error "can't build a model. Call (check-sat) first")
(error "can't build a model. Call (check-sat) first")
(error "can't build a model. Call (check-sat) first")
(error "can't build a model. Call (check-sat) first")
(error "can't build a model. Call (check-sat) first")
(error "can't build a model. Call (check-sat) first")
(error "can't build a model. Call (check-sat) first")
(error "can't build a model. Call (check-sat) first")
(error "can't build a model. Call (check-sat) first")
(error "can't build a model. Call (check-sat) first")
(error "can't build a model. Call (check-sat) first")
(error "can't build a model. Call (check-sat) first")
(error "can't build a model. Call (check-sat) first")
(error "can't build a model. Call (check-sat) first")
(error "can't build a model. Call (check-sat) first")
(error "can't build a model. Call (check-sat) first")
(error "can't build a model. Call (check-sat) first")
(error "can't build a model. Call (check-sat) first")
(error "can't build a model. Call (check-sat) first")
(error "can't build a model. Call (check-sat) first")
(error "can't build a model. Call (check-sat) first")
(error "can't build a model. Call (check-sat) first")
(error "can't build a model. Call (check-sat) first")
(error "can't build a model. Call (check-sat) first")
(error "can't build a model. Call (check-sat) first")
(error "can't build a model. Call (check-sat) first")
(error "can't build a model. Call (check-sat) first")
(error "can't build a model. Call (check-sat) first")
(error "can't build a model. Call (check-sat) first")
(error "can't build a model. Call (check-sat) first")
(error "can't build a model. Call (check-sat) first")
(error "can't build a model. Call (check-sat) first")
(error "can't build a model. Call (check-sat) first")
(error "can't build a model. Call (check-sat) first")
(error "can't build a model. Call (check-sat) first")
(error "can't build a model. Call (check-sat) first")
(error "can't build a model. Call (check-sat) first")
(error "can't build a model. Call (check-sat) first")
(error "can't build a model. Call (check-sat) first")
(error "can't build a model. Call (check-sat) first")
(error "can't build a model. Call (check-sat) first")
(error "can't build a model. Call (check-sat) first")
(error "can't build a model. Call (check-sat) first")
(error "can't build a model. Call (check-sat) first")
(error "can't build a model. Call (check-sat) first")
(error "can't build a model. Call (check-sat) first")
(error "can't build a model. Call (check-sat) first")
(error "can't build a model. Call (check-sat) first")
(error "can't build a model. Call (check-sat) first")
(error "can't build a model. Call (check-sat) first")
(error "can't build a model. Call (check-sat) first")
(error "can't build a model. Call (check-sat) first")
(error "can't build a model. Call (check-sat) first")
(error "can't build a model. Call (check-sat) first")
(error "can't build a model. Call (check-sat) first")
(error "can't build a model. Call (check-sat) first")
(error "can't build a model. Call (check-sat) first")
(error "can't build a model. Call (check-sat) first")
(error "can't build a model. Call (check-sat) first")
(error "can't build a model. Call (check-sat) first")
(error "can't build a model. Call (check-sat) first")
(error "can't build a model. Call (check-sat) first")
(error "can't build a model. Call (check-sat) first")
(error "can't build a model. Call (check-sat) first")
(error "can't build a model. Call (check-sat) first")
(error "can't build a model. Call (check-sat) first")
(error "can't build a model. Call (check-sat) first")
(error "can't build a model. Call (check-sat) first")
(error "can't build a model. Call (check-sat) first")
(error "can't build a model. Call (check-sat) first")
(error "can't build a model. Call (check-sat) first")
(error "can't build a model. Call (check-sat) first")
(error "can't build a model. Call (check-sat) first")
(error "can't build a model. Call (check-sat) first")
(error "can't build a model. Call (check-sat) first")
(error "can't build a model. Call (check-sat) first")
(error "can't build a model. Call (check-sat) first")
(error "can't build a model. Call (check-sat) first")
(error "can't build a model. Call (check-sat) first")
(error "can't build a model. Call (check-sat) first")
(error "can't build a model. Call (check-sat) first")
(error "can't build a model. Call (check-sat) first")
(error "can't build a model. Call (check-sat) first")
(error "can't build a model. Call (check-sat) first")
(error "can't build a model. Call (check-sat) first")
(error "can't build a model. Call (check-sat) first")
(error "can't build a model. Call (check-sat) first")
(error "can't build a model. Call (check-sat) first")
(error "can't build a model. Call (check-sat) first")
(error "can't build a model. Call (check-sat) first")
(error "can't build a model. Call (check-sat) first")
(error "can't build a model. Call (check-sat) first")
(error "can't build a model. Call (check-sat) first")
(error "can't build a model. Call (check-sat) first")
(error "can't build a model. Call (check-sat) first")
(error "can't build a model. Call (check-sat) first")
(error "can't build a model. Call (check-sat) first")
(error "can't build a model. Call (check-sat) first")
(error "can't build a model. Call (check-sat) first")
(error "can't build a model. Call (check-sat) first")
(error "can't build a model. Call (check-sat) first")
(error "can't build a model. Call (check-sat) first")
(error "can't build a model. Call (check-sat) first")
(error "can't build a model. Call (check-sat) first")
(error "can't build a model. Call (check-sat) first")
(error "can't build a model. Call (check-sat) first")
(error "can't build a model. Call (check-sat) first")
(error "can't build a model. Call (check-sat) first")
(error "can't build a model. Call (check-sat) first")
(error "can't build a model. Call (check-sat) first")
(error "can't build a model. Call (check-sat) first")
(error "can't build a model. Call (check-sat) first")
(error "can't build a model. Call (check-sat) first")
(error "can't build a model. Call (check-sat) first")
(error "can't build a model. Call (check-sat) first")
(error "can't build a model. Call (check-sat) first")
(error "can't build a model. Call (check-sat) first")
(error "can't build a model. Call (check-sat) first")
(error "can't build a model. Call (check-sat) first")
(error "can't build a model. Call (check-sat) first")
(error "can't build a model. Call (check-sat) first")
(error "can't build a model. Call (check-sat) first")
(error "can't build a model. Call (check-sat) first")
(error "can't build a model. Call (check-sat) first")
(error "can't build a model. Call (check-sat) first")
(error "can't build a model. Call (check-sat) first")
(error "can't build a model. Call (check-sat) first")
(error "can't build a model. Call (check-sat) first")
(error "can't build a model. Call (check-sat) first")
(error "can't build a model. Call (check-sat) first")
(error "can't build a model. Call (check-sat) first")
(error "can't build a model. Call (check-sat) first")
(error "can't build a model. Call (check-sat) first")
(error "can't build a model. Call (check-sat) first")
(error "can't build a model. Call (check-sat) first")
(error "can't build a model. Call (check-sat) first")
(error "can't build a model. Call (check-sat) first")
(error "can't build a model. Call (check-sat) first")
(error "can't build a model. Call (check-sat) first")
(error "can't build a model. Call (check-sat) first")
(error "can't build a model. Call (check-sat) first")
(error "can't build a model. Call (check-sat) first")
(error "can't build a model. Call (check-sat) first")
(error "can't build a model. Call (check-sat) first")
(error "can't build a model. Call (check-sat) first")
(error "can't build a model. Call (check-sat) first")
(error "can't build a model. Call (check-sat) first")
(error "can't build a model. Call (check-sat) first")
(error "can't build a model. Call (check-sat) first")
(error "can't build a model. Call (check-sat) first")
(error "can't build a model. Call (check-sat) first")
(error "can't build a model. Call (check-sat) first")
(error "can't build a model. Call (check-sat) first")
(error "can't build a model. Call (check-sat) first")
(error "can't build a model. Call (check-sat) first")
(error "can't build a model. Call (check-sat) first")
(error "can't build a model. Call (check-sat) first")
(error "can't build a model. Call (check-sat) first")
(error "can't build a model. Call (check-sat) first")
(error "can't build a model. Call (check-sat) first")
(error "can't build a model. Call (check-sat) first")
(error "can't build a model. Call (check-sat) first")
(error "can't build a model. Call (check-sat) first")
(error "can't build a model. Call (check-sat) first")
(error "can't build a model. Call (check-sat) first")
(error "can't build a model. Call (check-sat) first")
(error "can't build a model. Call (check-sat) first")
(error "can't build a model. Call (check-sat) first")
(error "can't build a model. Call (check-sat) first")
(error "can't build a model. Call (check-sat) first")
(error "can't build a model. Call (check-sat) first")
(error "can't build a model. Call (check-sat) first")
(error "can't build a model. Call (check-sat) first")
(error "can't build a model. Call (check-sat) first")
(error "can't build a model. Call (check-sat) first")
(error "can't build a model. Call (check-sat) first")
(error "can't build a model. Call (check-sat) first")
(error "can't build a model. Call (check-sat) first")
(error "can't build a model. Call (check-sat) first")
(error "can't build a model. Call (check-sat) first")
(error "can't build a model. Call (check-sat) first")
(error "can't build a model. Call (check-sat) first")
(error "can't build a model. Call (check-sat) first")
(error "can't build a model. Call (check-sat) first")
(error "can't build a model. Call (check-sat) first")
(error "can't build a model. Call (check-sat) first")
(error "can't build a model. Call (check-sat) first")
(error "can't build a model. Call (check-sat) first")
(error "can't build a model. Call (check-sat) first")
(error "can't build a model. Call (check-sat) first")
(error "can't build a model. Call (check-sat) first")
(error "can't build a model. Call (check-sat) first")
(error "can't build a model. Call (check-sat) first")
(error "can't build a model. Call (check-sat) first")
(error "can't build a model. Call (check-sat) first")
(error "can't build a model. Call (check-sat) first")
(error "can't build a model. Call (check-sat) first")
(error "can't build a model. Call (check-sat) first")
(error "can't build a model. Call (check-sat) first")
(error "can't build a model. Call (check-sat) first")
(error "can't build a model. Call (check-sat) first")
(error "can't build a model. Call (check-sat) first")
(error "can't build a model. Call (check-sat) first")
(error "can't build a model. Call (check-sat) first")
(error "can't build a model. Call (check-sat) first")
(error "can't build a model. Call (check-sat) first")
(error "can't build a model. Call (check-sat) first")
(error "can't build a model. Call (check-sat) first")
(error "can't build a model. Call (check-sat) first")
(error "can't build a model. Call (check-sat) first")
(error "can't build a model. Call (check-sat) first")
(error "can't build a model. Call (check-sat) first")
(error "can't build a model. Call (check-sat) first")
(error "can't build a model. Call (check-sat) first")
(error "can't build a model. Call (check-sat) first")
(error "can't build a model. Call (check-sat) first")
(error "can't build a model. Call (check-sat) first")
(error "can't build a model. Call (check-sat) first")
(error "can't build a model. Call (check-sat) first")
(error "can't build a model. Call (check-sat) first")
(error "can't build a model. Call (check-sat) first")
(error "can't build a model. Call (check-sat) first")
(error "can't build a model. Call (check-sat) first")
(error "can't build a model. Call (check-sat) first")
(error "can't build a model. Call (check-sat) first")
(error "can't build a model. Call (check-sat) first")
(error "can't build a model. Call (check-sat) first")
(error "can't build a model. Call (check-sat) first")
(error "can't build a model. Call (check-sat) first")
(error "can't build a model. Call (check-sat) first")
(error "can't build a model. Call (check-sat) first")
(error "can't build a model. Call (check-sat) first")
(error "can't build a model. Call (check-sat) first")
(error "can't build a model. Call (check-sat) first")
(error "can't build a model. Call (check-sat) first")
(error "can't build a model. Call (check-sat) first")
(error "can't build a model. Call (check-sat) first")
(error "can't build a model. Call (check-sat) first")
(error "can't build a model. Call (check-sat) first")
(error "can't build a model. Call (check-sat) first")
(error "can't build a model. Call (check-sat) first")
(error "can't build a model. Call (check-sat) first")
(error "can't build a model. Call (check-sat) first")
(error "can't build a model. Call (check-sat) first")
(error "can't build a model. Call (check-sat) first")
(error "can't build a model. Call (check-sat) first")
(error "can't build a model. Call (check-sat) first")
(error "can't build a model. Call (check-sat) first")
(error "can't build a model. Call (check-sat) first")
(error "can't build a model. Call (check-sat) first")
(error "can't build a model. Call (check-sat) first")
(error "can't build a model. Call (check-sat) first")
(error "can't build a model. Call (check-sat) first")
(error "can't build a model. Call (check-sat) first")
(error "can't build a model. Call (check-sat) first")
(error "can't build a model. Call (check-sat) first")
(error "can't build a model. Call (check-sat) first")
(error "can't build a model. Call (check-sat) first")
(error "can't build a model. Call (check-sat) first")
(error "can't build a model. Call (check-sat) first")
(error "can't build a model. Call (check-sat) first")
(error "can't build a model. Call (check-sat) first")
(error "can't build a model. Call (check-sat) first")
(error "can't build a model. Call (check-sat) first")
(error "can't build a model. Call (check-sat) first")
(error "can't build a model. Call (check-sat) first")
(error "can't build a model. Call (check-sat) first")
(error "can't build a model. Call (check-sat) first")
(error "can't build a model. Call (check-sat) first")
(error "can't build a model. Call (check-sat) first")
(error "can't build a model. Call (check-sat) first")
(error "can't build a model. Call (check-sat) first")
(error "can't build a model. Call (check-sat) first")
(error "can't build a model. Call (check-sat) first")
(error "can't build a model. Call (check-sat) first")
(error "can't build a model. Call (check-sat) first")
(error "can't build a model. Call (check-sat) first")
(error "can't build a model. Call (check-sat) first")
(error "can't build a model. Call (check-sat) first")
(error "can't build a model. Call (check-sat) first")
(error "can't build a model. Call (check-sat) first")
(error "can't build a model. Call (check-sat) first")
(error "can't build a model. Call (check-sat) first")
(error "can't build a model. Call (check-sat) first")
(error "can't build a model. Call (check-sat) first")
(error "can't build a model. Call (check-sat) first")
(error "can't build a model. Call (check-sat) first")
(error "can't build a model. Call (check-sat) first")
(error "can't build a model. Call (check-sat) first")
(error "can't build a model. Call (check-sat) first")
(error "can't build a model. Call (check-sat) first")
(error "can't build a model. Call (check-sat) first")
(error "can't build a model. Call (check-sat) first")
(error "can't build a model. Call (check-sat) first")
(error "can't build a model. Call (check-sat) first")
(error "can't build a model. Call (check-sat) first")
(error "can't build a model. Call (check-sat) first")
(error "can't build a model. Call (check-sat) first")
(error "can't build a model. Call (check-sat) first")
(error "can't build a model. Call (check-sat) first")
